Sigma 5 (310)[100] bcc Fe - substitution
   2.83746000000000     
     6.6146000000000003    0.0000000000000000    0.0000000000000000
     0.0000000000000000    3.1622800000000000    0.0000000000000000
     0.0000000000000000    0.0000000000000000    1.0000000000000000
  Fe   C 
  38   4
Direct
  0.0010863331828145 -0.0083273568915470  0.0002106906580257 Fe
  0.5010863331828143  0.0083273568915470 -0.0002106906580257 Fe
  0.4970680982182295  0.4754465771634786  0.4996606231861733 Fe
 -0.0029319017817708  0.5245534228365212  0.5003393768138266 Fe
  0.3452818673793536  0.0915051963676188  0.9996813604900742 Fe
  0.2005534874462380  0.1923318705125774  0.9999629437457686 Fe
  0.3928590793985325  0.3968586720034397  0.9996394347404414 Fe
  0.2499917129969630  0.4937135049526343  0.9998942667658617 Fe
  0.1057971132665034  0.5912806014586985  0.9998931934711517 Fe
  0.4421534119006636  0.6908683523054653  0.9994041964173341 Fe
  0.2999646754898488  0.7955279563623594  0.9998433273327710 Fe
  0.1555067387970006  0.8965135650524934  0.9998868775449921 Fe
  0.2504467744632241 -0.0060593817149507  0.4996579171498540 Fe
  0.1012225357233653  0.0938495719274259  0.5000859229831427 Fe
  0.4370377151993814  0.1978946126267057  0.4996577384844778 Fe
  0.2966159201849374  0.2932724389161597  0.4997494269563136 Fe
  0.1517525484520206  0.3930635457981305  0.4996995827982813 Fe
  0.3474596127595615  0.5954261176968162  0.4996492982936289 Fe
  0.2026204444684257  0.6926474398129446  0.4998863038796597 Fe
  0.0631969783181307  0.7926722417505505  0.5000284393440730 Fe
  0.4005095905281749  0.8951343565323178  0.4996626491568862 Fe
  0.6555067387970006  0.1034864349475070  0.0001131224550085 Fe
  0.7999646754898486  0.2044720436376406  0.0001566726672291 Fe
  0.9421534119006632  0.3091316476945350  0.0005958035826660 Fe
  0.6057971132665038  0.4087193985413015  0.0001068065288483 Fe
  0.7499917129969632  0.5062864950473660  0.0001057332341379 Fe
  0.8928590793985325  0.6031413279965604  0.0003605652595584 Fe
  0.7005534874462376  0.8076681294874225  0.0000370562542317 Fe
  0.8452818673793534  0.9084948036323812  0.0003186395099262 Fe
  0.7504467744632244  0.0060593817149507  0.5003420828501460 Fe
  0.9005095905281749  0.1048656434676822  0.5003373508431138 Fe
  0.5631971783181329  0.2073277582494500  0.4999715606559268 Fe
  0.7026204444684256  0.3073525601870553  0.5001136961203403 Fe
  0.8474596127595614  0.4045738823031838  0.5003507017063713 Fe
  0.6517525484520204  0.6069364542018695  0.5003004172017192 Fe
  0.7966159201849369  0.7067275610838403  0.5002505730436870 Fe
  0.9370377151993815  0.8021053873732947  0.5003422615155225 Fe
  0.6012225357233651  0.9061504280725740  0.4999140770168577 Fe
  0.0593724205650713  0.2954569414730223  0.9995321993609536 C
  0.5593726205650734  0.7045430585269776  0.0004678006390462 C
0.499503 0.3023286775005862 -0.0002178286240014 C
-0.000497459 0.6976713224994133 0.0002178286240014 C
